
%FILE DATA:	Soccer Computational Problem for MiniZinc Models	%
%AUTHOR:	Jack Wall	%
%CONTACT:  	116397063@umail.ucc.ie			%
%LAST UPDATE:	03/02/2020, 16:22:15						%
%DESCRIPTION: 	224 games played with 16 games left				%


n=16; %number of teams

%Games to play
games=[|3,8|5,2|6,4|8,4|9,8|10,7|14,16|14,2|4,5|12,10|6,5|1,8|13,7|8,13|15,3|14,11|];

%Initial points
iPoints=[30,44,35,49,37,41,30,37,40,41,43,30,39,32,34,41];

%POSITION CONSTRAINTS
% [|teamID, operator, position|...]
% operators index:
%  1 for =  operator
%  2 for >  operator
%  3 for >= operator
%  4 for <  operator
%  5 for <= operator
positionConstraints=[|4,3,1|2,3,2|6,5,3|];